NAME: I21573-n74-k10
COMMENT : (Fake et al, No of trucks: 10, Optimal value: )
TYPE : CVRP
DIMENSION : 74
EDGE_WEIGHT_TYPE : EUC_2D
CAPACITY : 8
NODE_COORD_SECTION
1 894 118
2 69 116
3 28 378
4 832 27
5 442 415
6 743 448
7 370 15
8 901 468
9 524 454
10 302 878
11 826 220
12 178 367
13 498 422
14 831 961
15 761 630
16 831 768
17 866 845
18 774 267
19 575 319
20 547 140
21 660 691
22 357 706
23 67 641
24 120 353
25 319 573
26 71 325
27 329 201
28 810 308
29 341 309
30 848 364
31 324 429
32 564 118
33 390 87
34 310 684
35 245 503
36 58 939
37 7 505
38 923 434
39 698 731
40 712 360
41 130 246
42 921 759
43 808 87
44 983 400
45 337 111
46 326 992
47 816 329
48 470 689
49 637 307
50 810 362
51 950 754
52 663 315
53 126 576
54 917 344
55 919 526
56 108 21
57 450 273
58 822 653
59 405 843
60 974 664
61 960 899
62 861 419
63 193 439
64 219 568
65 936 208
66 610 391
67 136 966
68 29 980
69 912 692
70 474 528
71 880 136
72 811 316
73 792 166
74 811 240
DEMAND_SECTION
1 0
2 1
3 1
4 1
5 1
6 1
7 1
8 1
9 1
10 1
11 1
12 1
13 1
14 1
15 1
16 1
17 1
18 1
19 1
20 1
21 1
22 1
23 1
24 1
25 1
26 1
27 1
28 1
29 1
30 1
31 1
32 1
33 1
34 1
35 1
36 1
37 1
38 1
39 1
40 1
41 1
42 1
43 1
44 1
45 1
46 1
47 1
48 1
49 1
50 1
51 1
52 1
53 1
54 1
55 1
56 1
57 1
58 1
59 1
60 1
61 1
62 1
63 1
64 1
65 1
66 1
67 1
68 1
69 1
70 1
71 1
72 1
73 1
74 1
DEPOT_SECTION
 1
 -1
 EOF 